p cnf 43 118
a 1 38 0
e 2 3 4 5 6 7 8 9 10 11 12 13 14 15 16 17 18 19 20 21 22 23 24 25 26 27 28 29 30 31 32 33 34 35 36 37 39 40 41 42 43 0
-4 2 0
-4 -3 0
-2 3 4 0
-5 4 0
-5 -4 0
-6 1 0
-6 5 0
-1 -5 6 0
7 3 -8 0
-7 -3 -8 0
7 -3 8 0
-7 3 8 0
6 -8 -9 0
-6 8 -9 0
6 8 9 0
-6 -8 9 0
4 10 0
-4 10 0
-11 9 0
-11 10 0
-9 -10 11 0
14 12 0
14 13 0
-12 -13 -14 0
-15 7 0
-15 14 0
-7 -14 15 0
16 -5 0
16 -14 0
5 14 -16 0
17 7 -18 0
-17 -7 -18 0
17 -7 18 0
-17 7 18 0
19 18 0
19 -3 0
-18 3 -19 0
-20 -16 0
-20 -19 0
16 19 20 0
-23 -17 0
-23 -22 0
17 22 23 0
-24 21 0
-24 23 0
-21 -23 24 0
25 -20 0
25 -24 0
20 24 -25 0
2 22 -26 0
-2 -22 -26 0
2 -22 26 0
-2 22 26 0
27 26 0
27 -3 0
-26 3 -27 0
28 27 0
28 2 0
-27 -2 -28 0
30 26 0
30 -29 0
-26 29 -30 0
31 -28 0
31 -30 0
28 30 -31 0
17 -21 -32 0
-17 21 -32 0
17 21 32 0
-17 -21 32 0
33 -32 0
33 -22 0
32 22 -33 0
34 7 0
34 -21 0
-7 21 -34 0
18 3 -35 0
-18 -3 -35 0
18 -3 35 0
-18 3 35 0
-36 35 0
-36 18 0
-35 -18 36 0
37 -26 0
37 36 0
26 -36 -37 0
34 37 -38 0
-34 -37 -38 0
34 -37 38 0
-34 37 38 0
-33 -38 -39 0
33 38 -39 0
-33 38 39 0
33 -38 39 0
-40 -31 0
-40 -39 0
31 39 40 0
-41 25 0
-41 40 0
-25 -40 41 0
42 15 0
42 -41 0
-15 41 -42 0
11 -42 -43 0
-11 42 -43 0
11 42 43 0
-11 -42 43 0
-30 34 2 -15 29 0
18 5 14 36 40 25 22 0
20 -41 -8 0
10 25 20 -16 -8 0
27 37 -12 32 0
21 30 2 10 -4 28 14 0
-42 8 6 -29 37 -31 0
2 35 37 -16 0
43 -9 27 26 -40 30 28 0
18 -43 -35 31 -11 42 0
29 -42 -40 7 38 20 39 0
43 0
